
Gurobi 10.0.3 (linux64, gurobi_cl) logging started Fri Nov 10 18:44:55 2023

Set parameter Username
Set parameter TimeLimit to value 3600
Set parameter LogFile to value "RCPSP_1674.log"
Set parameter Threads to value 32
Academic license - for non-commercial use only - expires 2024-11-06
Using license file /home/jrivera6/gurobi-licenses/v1003/compute-0-36/gurobi.lic

Gurobi Optimizer version 10.0.3 build v10.0.3rc0 (linux64)
Copyright (c) 2023, Gurobi Optimization, LLC

Read MPS format model from file RCPSP_1674.mps
Reading time = 0.12 seconds
RCPSP_1674: 75251 rows, 29890 columns, 237025 nonzeros

CPU model: Intel(R) Xeon(R) Gold 6130 CPU @ 2.10GHz, instruction set [SSE2|AVX|AVX2|AVX512]
Thread count: 32 physical cores, 32 logical processors, using up to 32 threads

Optimize a model with 75251 rows, 29890 columns and 237025 nonzeros
Model fingerprint: 0x868dcc98
Variable types: 122 continuous, 29768 integer (29768 binary)
Coefficient statistics:
  Matrix range     [1e+00, 7e+02]
  Objective range  [1e+00, 1e+00]
  Bounds range     [1e+00, 1e+00]
  RHS range        [1e+00, 7e+02]
Presolve removed 11457 rows and 1723 columns (presolve time = 5s) ...
Presolve removed 11457 rows and 1723 columns (presolve time = 10s) ...
Presolve removed 14856 rows and 2986 columns
Presolve time: 14.11s
Presolved: 60395 rows, 26904 columns, 198789 nonzeros
Variable types: 121 continuous, 26783 integer (26783 binary)

Deterministic concurrent LP optimizer: primal and dual simplex (primal and dual model)
Showing first log only...

Root relaxation presolved: 60394 rows, 26905 columns, 198787 nonzeros


Root simplex log...

Iteration    Objective       Primal Inf.    Dual Inf.      Time
       0    1.0142198e+02   6.558205e-03   2.200879e+08     17s
    3859    1.0100000e+02   0.000000e+00   0.000000e+00     18s
    3859    1.0100000e+02   0.000000e+00   0.000000e+00     18s
Concurrent spin time: 1.82s

Solved with dual simplex (dual model)

Root relaxation: objective 1.010000e+02, 29451 iterations, 4.69 seconds (0.32 work units)
Total elapsed time = 20.09s
Total elapsed time = 25.83s

    Nodes    |    Current Node    |     Objective Bounds      |     Work
 Expl Unexpl |  Obj  Depth IntInf | Incumbent    BestBd   Gap | It/Node Time

     0     0  101.00000    0   17          -  101.00000      -     -   28s
     0     0  101.00000    0  852          -  101.00000      -     -   70s
     0     0  101.00000    0  849          -  101.00000      -     -   71s
     0     0  101.00000    0   18          -  101.00000      -     -   95s
     0     0  101.00000    0    3          -  101.00000      -     -  131s
     0     0  101.00000    0    5          -  101.00000      -     -  134s
     0     0  101.00000    0    1          -  101.00000      -     -  150s
H    0     0                     101.0000000  101.00000  0.00%     -  164s
     0     0  101.00000    0    1  101.00000  101.00000  0.00%     -  164s

Cutting planes:
  Gomory: 6
  Cover: 13
  Implied bound: 22
  MIR: 51
  StrongCG: 3
  Mod-K: 1
  RLT: 17
  Relax-and-lift: 24

Explored 1 nodes (67671 simplex iterations) in 171.10 seconds (17.86 work units)
Thread count was 32 (of 32 available processors)

Solution count 1: 101 

Optimal solution found (tolerance 1.00e-04)
Best objective 1.010000000000e+02, best bound 1.010000000000e+02, gap 0.0000%

Wrote result file 'RCPSP_1674.sol'

